33 33
23
3 3 0 0
3 4 27 0
3 5 3 24
3 6 27 4
7 3 16 0
3 8 23 10
3 9 13 0
3 10 3 0
3 13 0 3
3 14 3 10
3 15 23 18
3 17 0 16
3 24 13 9
3 30 20 3
3 33 30 0
3 4 3 29
4 4 16 15
4 6 26 27
4 10 23 0
4 12 16 3
4 14 16 19
4 17 26 10
7 33 6 0
